0	63	124	135	71	195	62	66	73	68	163	
162	0	91	157	105	93	184	78	111	76	56	
126	97	0	43	63	77	155	70	161	50	77	
156	182	194	0	107	38	120	31	195	60	179	
148	54	123	163	0	71	164	131	138	34	176	
36	142	27	79	77	0	181	195	56	35	137	
60	194	200	138	116	159	0	179	188	108	32	
163	28	149	75	128	101	196	0	131	83	161	
121	115	175	130	44	170	142	34	0	178	40	
74	125	41	140	188	165	178	140	59	0	25	
144	34	115	182	171	172	176	120	142	88	0	
